language ESSENCE' 1.0
letting lastdx=91
letting cage be [
[57,6,12,6,13,6,14,7,14,8,14],
[16,10,1,0,0, 0,0, 0,0, 0,0],
[16,11,2,10,2,0,0, 0,0, 0,0],
[31,9,3,10,3,10,4,9,4,0,0],
[25,16,14,16,15,15,15,0,0, 0,0],
[30,4,16,3,16,2,16,2,15,3,15],
[16,5,2,0,0, 0,0, 0,0, 0,0],
[9,9,6,0,0, 0,0, 0,0, 0,0],
[12,12,7,12,6,11,6,0,0, 0,0],
[4,8,2,0,0, 0,0, 0,0, 0,0],
[16,13,7,0,0, 0,0, 0,0, 0,0],
[16,9,1,9,2,0,0, 0,0, 0,0],
[10,8,16,8,15,0,0, 0,0, 0,0],
[13,14,11,0,0, 0,0, 0,0, 0,0],
[40,1,3,1,4,2,4,3,4,0,0],
[5,7,9,0,0, 0,0, 0,0, 0,0],
[9,11,1,0,0, 0,0, 0,0, 0,0],
[23,9,9,9,8,8,8,0,0, 0,0],
[38,12,13,12,14,13,14,13,15,12,15],
[23,3,13,2,13,1,13,0,0, 0,0],
[22,8,10,8,9,0,0, 0,0, 0,0],
[11,9,5,0,0, 0,0, 0,0, 0,0],
[7,4,12,0,0, 0,0, 0,0, 0,0],
[24,2,3,2,2,1,2,0,0, 0,0],
[32,6,5,6,6,7,6,7,7,0,0],
[32,2,9,2,10,1,10,0,0, 0,0],
[30,1,11,2,11,3,11,0,0, 0,0],
[13,8,13,0,0, 0,0, 0,0, 0,0],
[37,8,12,8,11,7,11,6,11,0,0],
[30,14,16,15,16,16,16,0,0, 0,0],
[36,4,15,5,15,5,14,5,13,0,0],
[1,4,10,0,0, 0,0, 0,0, 0,0],
[31,2,7,3,7,4,7,0,0, 0,0],
[14,4,13,0,0, 0,0, 0,0, 0,0],
[12,16,2,16,3,0,0, 0,0, 0,0],
[25,16,10,15,10,15,9,15,8,0,0],
[25,12,16,13,16,0,0, 0,0, 0,0],
[35,3,2,4,2,4,1,5,1,0,0],
[12,13,5,0,0, 0,0, 0,0, 0,0],
[39,6,4,6,3,5,3,4,3,3,3],
[39,6,15,7,15,7,16,6,16,5,16],
[45,16,6,15,6,14,6,13,6,0,0],
[17,11,10,10,10,0,0, 0,0, 0,0],
[38,7,2,7,1,8,1,6,1,6,2],
[36,4,6,3,6,2,6,1,6,1,7],
[52,1,15,1,16,1,14,2,14,0,0],
[33,11,7,11,8,11,9,0,0, 0,0],
[5,4,14,3,14,0,0, 0,0, 0,0],
[17,12,12,11,12,0,0, 0,0, 0,0],
[14,1,8,1,9,0,0, 0,0, 0,0],
[34,13,8,13,9,12,9,12,8,0,0],
[10,14,8,14,9,14,10,0,0, 0,0],
[11,10,5,10,6,0,0, 0,0, 0,0],
[2,14,4,0,0, 0,0, 0,0, 0,0],
[15,16,1,15,1,15,2,0,0, 0,0],
[40,5,4,4,4,4,5,3,5,0,0],
[40,8,3,8,4,8,5,8,6,7,5],
[49,16,9,16,8,16,7,15,7,14,7],
[24,3,12,2,12,1,12,0,0, 0,0],
[2,16,5,0,0, 0,0, 0,0, 0,0],
[3,5,10,0,0, 0,0, 0,0, 0,0],
[44,14,14,14,15,15,14,14,13,14,12],
[1,1,1,0,0, 0,0, 0,0, 0,0],
[17,1,5,2,5,0,0, 0,0, 0,0],
[18,2,1,3,1,0,0, 0,0, 0,0],
[38,2,8,3,8,4,8,5,8,0,0],
[24,3,9,3,10,4,9,0,0, 0,0],
[16,4,11,0,0, 0,0, 0,0, 0,0],
[7,5,5,0,0, 0,0, 0,0, 0,0],
[34,5,6,5,7,6,7,6,8,7,8],
[6,5,9,0,0, 0,0, 0,0, 0,0],
[11,5,11,5,12,0,0, 0,0, 0,0],
[16,6,9,0,0, 0,0, 0,0, 0,0],
[22,6,10,7,10,0,0, 0,0, 0,0],
[24,7,3,7,4,0,0, 0,0, 0,0],
[7,7,12,7,13,0,0, 0,0, 0,0],
[10,9,10,0,0, 0,0, 0,0, 0,0],
[15,9,11,0,0, 0,0, 0,0, 0,0],
[22,9,12,9,13,10,13,0,0, 0,0],
[14,9,14,9,15,10,15,0,0, 0,0],
[30,9,16,10,16,11,16,11,15,0,0],
[8,10,11,10,12,11,11,0,0, 0,0],
[33,10,14,11,14,11,13,0,0, 0,0],
[10,11,3,0,0, 0,0, 0,0, 0,0],
[21,11,4,11,5,0,0, 0,0, 0,0],
[11,12,3,0,0, 0,0, 0,0, 0,0],
[15,12,4,12,5,13,4,0,0, 0,0],
[21,12,10,13,10,0,0, 0,0, 0,0],
[39,13,3,14,3,14,2,0,0, 0,0],
[9,14,5,0,0, 0,0, 0,0, 0,0],
[38,15,3,15,4,15,5,16,4,0,0],
[9,15,11,15,12,0,0, 0,0, 0,0]
]
